c CNF file corresponding to a (partial) station packing problem.
p cnf 3277 229
1 2 3 4 5 6 7 8 9 10 11 12 13 14 0
-1 -2 0
-1 -3 0
-1 -4 0
-1 -5 0
-1 -6 0
-1 -7 0
-1 -8 0
-1 -9 0
-1 -10 0
-1 -11 0
-1 -12 0
-1 -13 0
-1 -14 0
-2 -3 0
-2 -4 0
-2 -5 0
-2 -6 0
-2 -7 0
-2 -8 0
-2 -9 0
-2 -10 0
-2 -11 0
-2 -12 0
-2 -13 0
-2 -14 0
-3 -4 0
-3 -5 0
-3 -6 0
-3 -7 0
-3 -8 0
-3 -9 0
-3 -10 0
-3 -11 0
-3 -12 0
-3 -13 0
-3 -14 0
-4 -5 0
-4 -6 0
-4 -7 0
-4 -8 0
-4 -9 0
-4 -10 0
-4 -11 0
-4 -12 0
-4 -13 0
-4 -14 0
-5 -6 0
-5 -7 0
-5 -8 0
-5 -9 0
-5 -10 0
-5 -11 0
-5 -12 0
-5 -13 0
-5 -14 0
-6 -7 0
-6 -8 0
-6 -9 0
-6 -10 0
-6 -11 0
-6 -12 0
-6 -13 0
-6 -14 0
-7 -8 0
-7 -9 0
-7 -10 0
-7 -11 0
-7 -12 0
-7 -13 0
-7 -14 0
-8 -9 0
-8 -10 0
-8 -11 0
-8 -12 0
-8 -13 0
-8 -14 0
-9 -10 0
-9 -11 0
-9 -12 0
-9 -13 0
-9 -14 0
-10 -11 0
-10 -12 0
-10 -13 0
-10 -14 0
-11 -12 0
-11 -13 0
-11 -14 0
-12 -13 0
-12 -14 0
-13 -14 0
3261 3262 3263 3264 3265 3266 3267 3268 3269 3270 3271 3272 3273 3274 3275 3276 3277 0
-3261 -3262 0
-3261 -3263 0
-3261 -3264 0
-3261 -3265 0
-3261 -3266 0
-3261 -3267 0
-3261 -3268 0
-3261 -3269 0
-3261 -3270 0
-3261 -3271 0
-3261 -3272 0
-3261 -3273 0
-3261 -3274 0
-3261 -3275 0
-3261 -3276 0
-3261 -3277 0
-3262 -3263 0
-3262 -3264 0
-3262 -3265 0
-3262 -3266 0
-3262 -3267 0
-3262 -3268 0
-3262 -3269 0
-3262 -3270 0
-3262 -3271 0
-3262 -3272 0
-3262 -3273 0
-3262 -3274 0
-3262 -3275 0
-3262 -3276 0
-3262 -3277 0
-3263 -3264 0
-3263 -3265 0
-3263 -3266 0
-3263 -3267 0
-3263 -3268 0
-3263 -3269 0
-3263 -3270 0
-3263 -3271 0
-3263 -3272 0
-3263 -3273 0
-3263 -3274 0
-3263 -3275 0
-3263 -3276 0
-3263 -3277 0
-3264 -3265 0
-3264 -3266 0
-3264 -3267 0
-3264 -3268 0
-3264 -3269 0
-3264 -3270 0
-3264 -3271 0
-3264 -3272 0
-3264 -3273 0
-3264 -3274 0
-3264 -3275 0
-3264 -3276 0
-3264 -3277 0
-3265 -3266 0
-3265 -3267 0
-3265 -3268 0
-3265 -3269 0
-3265 -3270 0
-3265 -3271 0
-3265 -3272 0
-3265 -3273 0
-3265 -3274 0
-3265 -3275 0
-3265 -3276 0
-3265 -3277 0
-3266 -3267 0
-3266 -3268 0
-3266 -3269 0
-3266 -3270 0
-3266 -3271 0
-3266 -3272 0
-3266 -3273 0
-3266 -3274 0
-3266 -3275 0
-3266 -3276 0
-3266 -3277 0
-3267 -3268 0
-3267 -3269 0
-3267 -3270 0
-3267 -3271 0
-3267 -3272 0
-3267 -3273 0
-3267 -3274 0
-3267 -3275 0
-3267 -3276 0
-3267 -3277 0
-3268 -3269 0
-3268 -3270 0
-3268 -3271 0
-3268 -3272 0
-3268 -3273 0
-3268 -3274 0
-3268 -3275 0
-3268 -3276 0
-3268 -3277 0
-3269 -3270 0
-3269 -3271 0
-3269 -3272 0
-3269 -3273 0
-3269 -3274 0
-3269 -3275 0
-3269 -3276 0
-3269 -3277 0
-3270 -3271 0
-3270 -3272 0
-3270 -3273 0
-3270 -3274 0
-3270 -3275 0
-3270 -3276 0
-3270 -3277 0
-3271 -3272 0
-3271 -3273 0
-3271 -3274 0
-3271 -3275 0
-3271 -3276 0
-3271 -3277 0
-3272 -3273 0
-3272 -3274 0
-3272 -3275 0
-3272 -3276 0
-3272 -3277 0
-3273 -3274 0
-3273 -3275 0
-3273 -3276 0
-3273 -3277 0
-3274 -3275 0
-3274 -3276 0
-3274 -3277 0
-3275 -3276 0
-3275 -3277 0
-3276 -3277 0
